SDVRP instances/custom_instances/p10_23_split0.vrp
NAME:p10_23_split
BEST_KNOWN: 0
COMMENT: 0
DIMENSION: 887
CAPACITY: 200
EDGE_WEIGHT_FORMAT: FUNCTION
EDGE_WEIGHT_TYPE: EXACT_2D
NODE_COORD_SECTION
1 0.00000 0.00000
2 0 -10
3 0 -10
4 0 -10
5 0 -10
6 0 -10
7 0 -10
8 -46 23
9 -46 23
10 -46 23
11 -46 23
12 33 8
13 33 8
14 33 8
15 33 8
16 -42 -32
17 -42 -32
18 -42 -32
19 -42 -32
20 -42 -32
21 -13 32
22 -13 32
23 -13 32
24 -13 32
25 -13 32
26 -33 6
27 -33 6
28 -33 6
29 -33 6
30 41 16
31 41 16
32 41 16
33 41 16
34 41 16
35 41 16
36 29 30
37 29 30
38 29 30
39 29 30
40 29 30
41 29 30
42 29 30
43 46 -7
44 46 -7
45 46 -7
46 -9 -32
47 -9 -32
48 -9 -32
49 -9 -32
50 -9 -32
51 10 -44
52 10 -44
53 10 -44
54 26 16
55 26 16
56 26 16
57 -28 29
58 -28 29
59 -28 29
60 -28 29
61 -28 29
62 30 28
63 30 28
64 30 28
65 30 28
66 30 28
67 30 28
68 30 28
69 32 37
70 32 37
71 32 37
72 32 37
73 32 37
74 32 37
75 32 37
76 -36 -39
77 -36 -39
78 -36 -39
79 -36 -39
80 -36 -39
81 -36 -39
82 38 -6
83 38 -6
84 38 -6
85 38 -6
86 -28 -30
87 -28 -30
88 -28 -30
89 -7 -5
90 -7 -5
91 -7 -5
92 -7 -5
93 45 30
94 45 30
95 45 30
96 -27 -30
97 -27 -30
98 -27 -30
99 -27 -30
100 5 -8
101 5 -8
102 5 -8
103 -10 45
104 -10 45
105 -28 -7
106 -28 -7
107 -28 -7
108 -28 -7
109 -28 -7
110 -28 -7
111 -9 -17
112 -9 -17
113 -9 -17
114 -9 -17
115 28 40
116 28 40
117 28 40
118 24 -40
119 24 -40
120 24 -40
121 24 -40
122 24 -40
123 24 -40
124 -46 -41
125 -46 -41
126 -46 -41
127 -46 -41
128 -46 -41
129 -46 -41
130 -20 -1
131 -20 -1
132 -20 -1
133 -20 -1
134 3 38
135 3 38
136 7 -25
137 7 -25
138 7 -25
139 -4 37
140 -4 37
141 -4 37
142 -4 37
143 -4 37
144 -7 43
145 -7 43
146 -7 43
147 -7 43
148 -7 43
149 -7 43
150 -7 43
151 31 -34
152 31 -34
153 31 -34
154 -16 -11
155 -16 -11
156 -16 -11
157 24 4
158 24 4
159 24 4
160 24 4
161 24 4
162 42 47
163 42 47
164 42 47
165 48 33
166 48 33
167 48 33
168 48 33
169 48 33
170 48 33
171 -11 21
172 -11 21
173 -11 21
174 -11 21
175 -11 21
176 -11 21
177 -11 21
178 43 28
179 43 28
180 -46 28
181 -46 28
182 -46 28
183 -41 -42
184 -41 -42
185 -41 -42
186 -41 -42
187 -50 33
188 -50 33
189 -50 33
190 -50 33
191 -50 33
192 -28 -36
193 -28 -36
194 -28 -36
195 -28 -36
196 -28 -36
197 -28 -36
198 -28 -36
199 -13 46
200 -13 46
201 -13 46
202 -13 46
203 -13 46
204 39 10
205 39 10
206 -15 10
207 -15 10
208 -15 10
209 -15 10
210 -15 10
211 -15 10
212 27 34
213 27 34
214 27 34
215 27 34
216 2 -8
217 2 -8
218 2 -8
219 2 -8
220 2 -8
221 2 -8
222 -15 11
223 -15 11
224 -15 11
225 48 45
226 -47 11
227 -47 11
228 0 48
229 0 48
230 0 48
231 0 48
232 0 48
233 0 48
234 -49 34
235 -49 34
236 -49 34
237 -36 8
238 -36 8
239 -36 8
240 -36 8
241 -36 8
242 -36 8
243 -38 -9
244 -38 -9
245 -38 -9
246 -38 -9
247 20 40
248 20 40
249 20 40
250 20 40
251 20 40
252 20 40
253 20 40
254 47 -27
255 47 -27
256 47 -27
257 -49 48
258 -49 48
259 -49 48
260 -49 48
261 45 -17
262 45 -17
263 45 -17
264 45 -17
265 45 -17
266 33 5
267 33 5
268 33 5
269 33 5
270 18 41
271 18 41
272 18 41
273 18 41
274 47 50
275 47 50
276 47 50
277 47 50
278 47 50
279 47 50
280 -46 5
281 -46 5
282 -46 5
283 4 32
284 -12 -21
285 -12 -21
286 -12 -21
287 -13 -25
288 -13 -25
289 -13 -25
290 -13 -25
291 0 -43
292 0 -43
293 0 -43
294 0 -43
295 0 -43
296 24 -23
297 24 -23
298 24 -23
299 24 -23
300 24 -23
301 24 -23
302 -49 10
303 -49 10
304 -49 10
305 -49 10
306 -49 10
307 -49 10
308 -49 10
309 0 14
310 0 14
311 0 14
312 0 14
313 0 14
314 -6 -4
315 -6 -4
316 -6 -4
317 -6 -4
318 -6 -4
319 -27 -31
320 -27 -31
321 -27 -31
322 -20 -12
323 -20 -12
324 -20 -12
325 -20 -12
326 -20 -12
327 35 -46
328 35 -46
329 35 -46
330 -8 -7
331 -8 -7
332 -8 -7
333 50 36
334 50 36
335 50 36
336 50 36
337 50 36
338 35 10
339 35 10
340 35 10
341 35 10
342 35 10
343 35 10
344 35 10
345 -15 -42
346 -15 -42
347 -15 -42
348 -15 -42
349 16 17
350 16 17
351 16 17
352 13 -25
353 13 -25
354 13 -25
355 13 -25
356 13 -25
357 48 -47
358 48 -47
359 48 -47
360 48 -47
361 48 -47
362 -1 -20
363 -1 -20
364 -1 -20
365 -1 -20
366 -1 -20
367 -1 -20
368 10 -38
369 10 -38
370 10 -38
371 10 -38
372 10 -38
373 10 -38
374 -10 -4
375 43 7
376 43 7
377 41 -1
378 41 -1
379 41 -1
380 41 -1
381 41 -1
382 41 -1
383 -48 18
384 -48 18
385 -48 18
386 40 1
387 40 1
388 40 1
389 40 1
390 40 1
391 40 1
392 5 9
393 5 9
394 5 9
395 5 9
396 39 -33
397 39 -33
398 39 -33
399 39 -33
400 39 -33
401 39 -33
402 -4 41
403 -4 41
404 -4 41
405 -4 41
406 -4 41
407 -4 41
408 -4 41
409 15 -33
410 15 -33
411 15 -33
412 15 -33
413 15 -33
414 15 -33
415 5 -29
416 5 -29
417 -8 -22
418 -8 -22
419 -8 -22
420 -8 -22
421 -8 -22
422 10 -38
423 10 -38
424 10 -38
425 10 -38
426 10 -38
427 10 -38
428 -17 -41
429 -17 -41
430 -17 -41
431 -17 -41
432 -17 -41
433 18 -50
434 18 -50
435 18 -50
436 18 -50
437 18 -50
438 18 -50
439 -36 17
440 -36 17
441 -36 17
442 -14 12
443 -14 12
444 -14 12
445 -14 12
446 -14 12
447 -14 12
448 -14 12
449 -14 12
450 38 -37
451 38 -37
452 -47 34
453 -47 34
454 -47 34
455 -47 34
456 -47 34
457 31 30
458 31 30
459 31 30
460 31 30
461 28 -40
462 28 -40
463 28 -40
464 9 36
465 9 36
466 9 36
467 49 37
468 49 37
469 49 37
470 49 37
471 49 37
472 49 37
473 23 -35
474 23 -35
475 23 -35
476 23 -35
477 45 43
478 45 43
479 45 43
480 45 43
481 45 43
482 45 43
483 45 43
484 35 34
485 35 34
486 35 34
487 35 34
488 35 34
489 35 34
490 -43 31
491 -43 31
492 -43 31
493 -15 15
494 -15 15
495 -15 15
496 -15 15
497 -15 15
498 -15 15
499 34 18
500 34 18
501 34 18
502 34 18
503 34 18
504 37 22
505 37 22
506 37 22
507 37 22
508 37 22
509 37 22
510 37 22
511 42 36
512 42 36
513 42 36
514 42 36
515 -4 -13
516 -4 -13
517 -4 -13
518 -4 -13
519 -4 -13
520 -4 -13
521 -2 -32
522 -2 -32
523 -2 -32
524 17 -29
525 17 -29
526 48 -44
527 48 -44
528 48 -44
529 48 -44
530 48 -44
531 48 -44
532 21 -21
533 21 -21
534 21 -21
535 21 -21
536 -14 -4
537 -14 -4
538 -14 -4
539 -14 -4
540 -14 -4
541 33 43
542 33 43
543 33 43
544 33 43
545 33 43
546 33 43
547 33 43
548 4 12
549 4 12
550 4 12
551 4 12
552 4 12
553 4 12
554 24 -36
555 24 -36
556 24 -36
557 24 -36
558 24 -36
559 24 -36
560 -2 -42
561 -2 -42
562 -2 -42
563 -2 -42
564 -2 -42
565 -2 -42
566 -2 -42
567 -17 -10
568 -17 -10
569 -28 31
570 -28 31
571 -28 31
572 -28 31
573 -19 25
574 -19 25
575 -19 25
576 -19 25
577 36 -4
578 36 -4
579 36 -4
580 36 -4
581 36 -4
582 36 -4
583 36 -4
584 47 -32
585 47 -32
586 47 -32
587 47 -32
588 47 -32
589 -43 -25
590 -43 -25
591 -43 -25
592 -43 -25
593 -43 -25
594 -43 -25
595 7 50
596 7 50
597 7 50
598 7 50
599 -47 30
600 -47 30
601 -47 30
602 23 -4
603 23 -4
604 39 -25
605 39 -25
606 39 -25
607 39 -25
608 39 -25
609 32 25
610 32 25
611 32 25
612 -31 -7
613 -31 -7
614 -31 -7
615 -31 -7
616 19 -38
617 14 -28
618 14 -28
619 14 -28
620 14 -28
621 15 -15
622 15 -15
623 15 -15
624 15 -15
625 -6 15
626 -6 15
627 39 -31
628 39 -31
629 39 -31
630 39 -31
631 39 -31
632 30 40
633 30 40
634 30 40
635 30 40
636 -4 -27
637 -4 -27
638 -4 -27
639 -4 -27
640 -4 -27
641 -4 -27
642 -4 -27
643 -18 18
644 -18 18
645 -18 18
646 -18 18
647 -18 18
648 24 9
649 24 9
650 24 9
651 24 9
652 24 9
653 -6 -6
654 -6 -6
655 -6 -6
656 -6 -6
657 -6 -6
658 -4 -24
659 -4 -24
660 -4 -24
661 -4 -24
662 -4 -24
663 -4 -24
664 -4 -24
665 18 34
666 18 34
667 18 34
668 18 34
669 41 -47
670 41 -47
671 41 -47
672 41 -47
673 41 -47
674 36 18
675 36 18
676 36 18
677 36 18
678 31 46
679 31 46
680 31 46
681 31 46
682 31 46
683 31 46
684 -22 41
685 -22 41
686 -22 41
687 40 -35
688 40 -35
689 -21 -18
690 23 15
691 23 15
692 23 15
693 23 15
694 12 13
695 12 13
696 12 13
697 12 13
698 36 26
699 36 26
700 36 26
701 35 -38
702 35 -38
703 35 -38
704 35 -38
705 -43 -32
706 -43 -32
707 -43 -32
708 -43 -32
709 -43 -32
710 -43 -32
711 20 47
712 20 47
713 20 47
714 20 47
715 -20 33
716 -20 33
717 -20 33
718 -20 33
719 -20 33
720 -20 33
721 -17 42
722 -17 42
723 -17 42
724 -17 42
725 -17 42
726 50 23
727 50 23
728 50 23
729 50 23
730 8 33
731 8 33
732 8 33
733 8 33
734 -41 0
735 -41 0
736 6 39
737 6 39
738 39 -34
739 39 -34
740 39 -34
741 39 -34
742 39 -34
743 -23 38
744 -23 38
745 -23 38
746 27 -1
747 27 -1
748 27 -1
749 27 -1
750 27 -1
751 -27 2
752 -27 2
753 -27 2
754 -27 2
755 -16 47
756 -16 47
757 -16 47
758 -16 47
759 -16 47
760 20 -46
761 20 -46
762 20 -46
763 20 -46
764 44 -36
765 44 -36
766 44 -36
767 -45 -3
768 -45 -3
769 -45 -3
770 -45 -3
771 -45 -3
772 -45 -3
773 -45 -3
774 9 -21
775 9 -21
776 -27 35
777 -27 35
778 -27 35
779 -27 35
780 -27 35
781 -27 35
782 41 -4
783 -49 -17
784 -49 -17
785 -49 -17
786 -41 46
787 -41 46
788 -41 46
789 -41 46
790 -41 46
791 19 -5
792 19 -5
793 19 -5
794 19 -5
795 -23 19
796 -23 19
797 -23 19
798 -23 19
799 -23 19
800 34 4
801 34 4
802 34 4
803 34 4
804 34 4
805 34 4
806 -19 -7
807 -19 -7
808 -19 -7
809 -19 -7
810 -19 -7
811 -19 -7
812 -19 -7
813 3 37
814 3 37
815 3 37
816 3 37
817 10 -23
818 10 -23
819 10 -23
820 10 -23
821 10 -23
822 10 -23
823 10 -23
824 -26 -1
825 -26 -1
826 -26 -1
827 -47 -15
828 -47 -15
829 -47 -15
830 -47 -15
831 -47 -15
832 -47 -15
833 48 22
834 48 22
835 -7 -17
836 -7 -17
837 -7 -17
838 26 33
839 26 33
840 26 33
841 26 33
842 26 33
843 26 33
844 -17 -18
845 -17 -18
846 -17 -18
847 -17 -18
848 -17 -18
849 -17 -18
850 38 -6
851 38 -6
852 38 -6
853 3 12
854 3 12
855 3 12
856 3 12
857 3 12
858 3 12
859 -3 -5
860 -3 -5
861 -3 -5
862 -3 -5
863 -3 -5
864 -4 35
865 -4 35
866 -4 35
867 -4 35
868 -4 35
869 -4 35
870 -4 35
871 -3 -13
872 -3 -13
873 -3 -13
874 -3 -13
875 -3 -13
876 -3 -13
877 -3 -13
878 -16 16
879 -16 16
880 -16 16
881 -16 16
882 -8 47
883 -8 47
884 -8 47
885 -8 47
886 29 23
887 29 23
DEMAND_SECTION
1 0
2 40
3 40
4 2
5 2
6 2
7 2
8 40
9 40
10 2
11 1
12 40
13 20
14 2
15 2
16 40
17 2
18 2
19 2
20 1
21 40
22 20
23 2
24 2
25 2
26 40
27 40
28 2
29 2
30 40
31 20
32 2
33 2
34 2
35 2
36 40
37 40
38 10
39 2
40 2
41 2
42 1
43 20
44 10
45 2
46 40
47 2
48 2
49 2
50 1
51 40
52 2
53 2
54 40
55 20
56 1
57 40
58 40
59 10
60 2
61 1
62 40
63 40
64 10
65 2
66 2
67 2
68 1
69 40
70 40
71 10
72 2
73 2
74 2
75 1
76 40
77 20
78 10
79 2
80 2
81 2
82 20
83 2
84 2
85 2
86 40
87 2
88 1
89 40
90 40
91 10
92 1
93 40
94 10
95 2
96 40
97 10
98 2
99 2
100 40
101 40
102 2
103 40
104 10
105 40
106 40
107 2
108 2
109 2
110 2
111 20
112 2
113 2
114 2
115 20
116 10
117 2
118 40
119 40
120 10
121 2
122 2
123 1
124 40
125 40
126 10
127 2
128 2
129 1
130 40
131 40
132 2
133 1
134 20
135 10
136 40
137 40
138 1
139 40
140 2
141 2
142 2
143 2
144 40
145 10
146 2
147 2
148 2
149 2
150 1
151 20
152 10
153 2
154 20
155 10
156 2
157 40
158 10
159 2
160 2
161 2
162 40
163 2
164 2
165 40
166 40
167 2
168 2
169 2
170 2
171 40
172 20
173 2
174 2
175 2
176 2
177 1
178 40
179 10
180 40
181 2
182 1
183 40
184 2
185 2
186 1
187 20
188 10
189 2
190 2
191 2
192 40
193 40
194 10
195 2
196 2
197 2
198 1
199 40
200 20
201 10
202 2
203 1
204 40
205 2
206 40
207 40
208 2
209 2
210 2
211 2
212 40
213 20
214 10
215 1
216 40
217 10
218 2
219 2
220 2
221 1
222 40
223 40
224 10
225 40
226 40
227 2
228 40
229 20
230 2
231 2
232 2
233 2
234 40
235 40
236 1
237 40
238 20
239 2
240 2
241 2
242 1
243 40
244 10
245 2
246 2
247 40
248 20
249 2
250 2
251 2
252 2
253 1
254 40
255 10
256 1
257 40
258 20
259 2
260 2
261 20
262 10
263 2
264 2
265 2
266 40
267 40
268 2
269 1
270 40
271 20
272 2
273 2
274 20
275 2
276 2
277 2
278 2
279 1
280 20
281 10
282 1
283 40
284 40
285 20
286 1
287 40
288 2
289 2
290 1
291 40
292 40
293 10
294 2
295 2
296 40
297 20
298 2
299 2
300 2
301 1
302 40
303 10
304 2
305 2
306 2
307 2
308 1
309 40
310 10
311 2
312 2
313 2
314 40
315 40
316 10
317 2
318 2
319 40
320 10
321 1
322 40
323 40
324 2
325 2
326 1
327 40
328 2
329 2
330 40
331 40
332 1
333 40
334 2
335 2
336 2
337 1
338 40
339 40
340 2
341 2
342 2
343 2
344 1
345 40
346 10
347 2
348 2
349 40
350 40
351 2
352 40
353 40
354 2
355 2
356 1
357 20
358 10
359 2
360 2
361 2
362 20
363 10
364 2
365 2
366 2
367 1
368 20
369 10
370 2
371 2
372 2
373 1
374 40
375 40
376 2
377 20
378 2
379 2
380 2
381 2
382 1
383 40
384 10
385 2
386 40
387 20
388 10
389 2
390 2
391 2
392 20
393 10
394 2
395 2
396 40
397 40
398 10
399 2
400 2
401 1
402 40
403 20
404 10
405 2
406 2
407 2
408 1
409 40
410 40
411 10
412 2
413 2
414 1
415 40
416 20
417 40
418 2
419 2
420 2
421 2
422 40
423 20
424 2
425 2
426 2
427 2
428 40
429 2
430 2
431 2
432 1
433 40
434 20
435 2
436 2
437 2
438 1
439 40
440 2
441 2
442 40
443 20
444 10
445 2
446 2
447 2
448 2
449 1
450 40
451 2
452 40
453 20
454 10
455 2
456 1
457 40
458 40
459 10
460 1
461 20
462 10
463 1
464 40
465 40
466 20
467 40
468 20
469 10
470 2
471 2
472 2
473 40
474 20
475 2
476 2
477 40
478 10
479 2
480 2
481 2
482 2
483 1
484 40
485 20
486 10
487 2
488 2
489 1
490 40
491 10
492 2
493 20
494 2
495 2
496 2
497 2
498 1
499 40
500 40
501 10
502 2
503 2
504 40
505 10
506 2
507 2
508 2
509 2
510 1
511 20
512 10
513 2
514 2
515 40
516 2
517 2
518 2
519 2
520 1
521 20
522 10
523 1
524 40
525 20
526 20
527 10
528 2
529 2
530 2
531 1
532 40
533 40
534 2
535 1
536 40
537 40
538 2
539 2
540 1
541 20
542 10
543 2
544 2
545 2
546 2
547 1
548 40
549 10
550 2
551 2
552 2
553 2
554 40
555 20
556 10
557 2
558 2
559 1
560 40
561 20
562 10
563 2
564 2
565 2
566 1
567 40
568 2
569 40
570 2
571 2
572 2
573 20
574 10
575 2
576 2
577 40
578 10
579 2
580 2
581 2
582 2
583 1
584 40
585 20
586 10
587 2
588 2
589 40
590 20
591 10
592 2
593 2
594 2
595 40
596 20
597 2
598 2
599 40
600 20
601 10
602 20
603 10
604 20
605 2
606 2
607 2
608 2
609 40
610 40
611 20
612 40
613 10
614 2
615 2
616 40
617 40
618 40
619 10
620 2
621 40
622 10
623 2
624 1
625 20
626 10
627 20
628 10
629 2
630 2
631 1
632 40
633 20
634 10
635 2
636 40
637 10
638 2
639 2
640 2
641 2
642 1
643 40
644 20
645 10
646 2
647 2
648 40
649 20
650 10
651 2
652 2
653 40
654 20
655 2
656 2
657 2
658 40
659 10
660 2
661 2
662 2
663 2
664 1
665 40
666 20
667 10
668 2
669 20
670 2
671 2
672 2
673 2
674 40
675 20
676 10
677 2
678 40
679 10
680 2
681 2
682 2
683 1
684 40
685 20
686 1
687 40
688 10
689 40
690 40
691 40
692 10
693 1
694 20
695 10
696 2
697 2
698 40
699 40
700 20
701 40
702 20
703 2
704 2
705 40
706 20
707 10
708 2
709 2
710 2
711 40
712 20
713 2
714 1
715 40
716 10
717 2
718 2
719 2
720 1
721 40
722 10
723 2
724 2
725 2
726 40
727 20
728 10
729 2
730 40
731 40
732 10
733 1
734 40
735 10
736 40
737 10
738 40
739 20
740 2
741 2
742 1
743 40
744 40
745 2
746 20
747 10
748 2
749 2
750 2
751 20
752 2
753 2
754 2
755 40
756 20
757 2
758 2
759 1
760 40
761 2
762 2
763 1
764 40
765 10
766 1
767 40
768 20
769 10
770 2
771 2
772 2
773 1
774 40
775 40
776 20
777 10
778 2
779 2
780 2
781 1
782 40
783 40
784 40
785 2
786 40
787 10
788 2
789 2
790 1
791 40
792 2
793 2
794 1
795 40
796 40
797 2
798 2
799 1
800 20
801 10
802 2
803 2
804 2
805 2
806 40
807 20
808 2
809 2
810 2
811 2
812 1
813 40
814 20
815 10
816 1
817 20
818 10
819 2
820 2
821 2
822 2
823 1
824 40
825 20
826 10
827 20
828 2
829 2
830 2
831 2
832 1
833 40
834 40
835 40
836 20
837 1
838 40
839 20
840 2
841 2
842 2
843 2
844 40
845 20
846 10
847 2
848 2
849 2
850 40
851 10
852 2
853 40
854 10
855 2
856 2
857 2
858 1
859 40
860 2
861 2
862 2
863 2
864 40
865 40
866 2
867 2
868 2
869 2
870 1
871 40
872 40
873 2
874 2
875 2
876 2
877 1
878 20
879 10
880 2
881 1
882 40
883 40
884 2
885 1
886 20
887 10
DEPOT_SECTION
1
-1
EOF