SDVRP instances/custom_instances/p10_23_split0.sol
886 -2 1 215 100 99 -6 4 3 5 871 870 874 876 875 873 872 519 515 514 517 518 516 858 859 862 861 860 -8 9 10 7 181 180 179 599 598 600 -17 16 19 15 18 706 704 708 705 707 709 75 80 79 77 76 78 320 -22 24 23 21 20 575 574 573 572 797 794 796 795 798 878 879 880 -39 35 37 456 458 457 459 66 64 63 61 67 65 -54 502 501 500 499 498 675 673 676 674 -55 53 30 29 33 31 32 34 374 375 203 204 341 342 340 -68 70 73 71 72 74 69 484 483 485 486 487 488 885 -92 93 94 167 164 169 166 165 168 62 886 -98 96 85 86 87 182 183 184 185 123 128 127 125 124 126 -101 557 553 554 558 555 556 762 759 760 761 432 433 434 435 436 437 51 52 423 426 424 -102 103 884 882 881 144 148 149 145 143 146 147 141 866 867 869 868 -112 111 110 113 285 284 283 287 288 289 286 836 834 835 -116 115 114 677 682 678 680 681 679 546 545 544 543 542 540 541 631 634 632 633 -129 132 130 810 809 811 805 566 567 155 153 154 -131 823 611 107 104 108 105 106 109 806 807 808 -139 142 407 228 229 227 231 230 232 595 594 596 597 712 711 710 713 -156 157 158 13 12 14 11 338 337 343 339 -159 160 803 802 801 800 804 799 266 268 267 265 651 648 649 650 647 -187 189 188 190 186 233 234 235 452 451 455 454 453 490 -191 196 194 192 193 195 197 318 319 97 95 331 315 -210 206 207 208 209 205 222 223 221 -217 216 220 219 218 135 137 136 819 818 817 774 773 -236 239 240 237 238 241 28 26 25 750 825 824 -262 260 261 264 263 42 43 44 781 82 81 83 850 851 849 84 602 -272 269 270 271 249 252 248 250 251 246 247 665 664 667 -282 736 735 134 133 814 813 815 812 310 312 -292 294 290 291 293 559 560 562 561 565 564 563 520 522 363 366 364 -309 311 308 170 174 175 173 172 176 171 624 625 -316 317 313 314 89 88 90 91 656 653 655 -321 322 688 845 843 847 844 848 846 -324 325 323 591 592 588 593 589 590 782 784 783 829 826 827 831 830 828 -326 328 327 669 672 671 668 670 360 359 358 356 357 525 526 528 529 530 527 763 764 765 -329 330 535 536 373 -361 365 362 660 663 657 661 662 659 658 636 641 635 640 638 639 637 417 418 419 416 420 -371 368 369 422 367 425 421 372 370 50 414 415 -382 384 383 225 226 307 302 304 305 306 301 303 279 281 280 27 753 751 752 -392 394 393 391 548 552 549 551 550 547 853 856 857 852 855 854 -401 404 402 403 405 406 138 140 863 865 864 -439 440 438 59 56 58 60 57 568 570 571 569 645 646 644 -445 448 443 447 444 442 441 446 642 643 877 496 493 494 497 492 495 -462 461 460 703 701 700 702 450 449 150 152 151 296 299 297 298 300 623 -463 465 464 729 731 730 732 -475 472 473 474 122 121 118 120 117 119 615 -489 491 259 258 256 257 789 788 785 787 786 780 777 779 775 778 776 -503 506 507 726 725 728 727 832 833 -504 508 505 509 178 177 336 332 334 335 333 471 467 470 469 468 466 511 513 -512 510 480 479 482 477 478 476 481 224 275 274 273 278 276 277 161 162 163 842 840 -521 345 344 347 346 430 431 429 427 428 46 47 45 48 49 652 654 -523 524 410 411 409 413 412 408 616 619 -537 538 539 613 614 612 244 243 245 242 768 771 770 767 772 769 766 734 733 -582 579 576 577 578 580 581 381 379 380 377 376 378 385 390 388 386 389 387 748 745 747 749 746 -606 607 605 603 604 255 254 253 586 584 583 587 585 738 397 399 400 627 628 629 -609 610 608 698 697 699 -620 353 352 351 355 354 617 618 821 816 820 822 -622 621 532 534 533 531 295 601 790 791 793 792 -630 626 395 396 398 686 687 739 737 740 741 -666 837 839 838 841 214 212 211 213 40 36 41 38 694 -685 684 683 743 744 742 716 717 714 718 715 719 -692 691 689 690 349 348 350 693 696 695 -720 722 724 721 723 756 754 758 757 755 200 201 198 202 199 883 0 





OBJ=
5390.547
BEST_KNOWN=
0.000